*SENSE:Maximize
NAME          MODEL
ROWS
 N  OBJ
 L  C0000000
 L  C0000001
 L  C0000002
 L  C0000003
 L  C0000004
 L  C0000005
 L  C0000006
 L  C0000007
 L  C0000008
 L  C0000009
 L  C0000010
 L  C0000011
 L  C0000012
 L  C0000013
 L  C0000014
 L  C0000015
 L  C0000016
 L  C0000017
 L  C0000018
 L  C0000019
 L  C0000020
 L  C0000021
 L  C0000022
 L  C0000023
 L  C0000024
 L  C0000025
 L  C0000026
 L  C0000027
 L  C0000028
 L  C0000029
 L  C0000030
 L  C0000031
 L  C0000032
 L  C0000033
 L  C0000034
 L  C0000035
COLUMNS
    MARK      'MARKER'                 'INTORG'
    X0000000  C0000000   1.000000000000e+00
    X0000000  C0000004   1.000000000000e+00
    X0000000  C0000014  -1.000000000000e+00
    X0000000  C0000034   1.000000000000e+00
    X0000000  OBJ        1.207256000000e+06
    MARK      'MARKER'                 'INTEND'
    MARK      'MARKER'                 'INTORG'
    X0000001  C0000001   1.000000000000e+00
    X0000001  C0000004   1.000000000000e+00
    X0000001  C0000019  -1.000000000000e+00
    X0000001  C0000035   1.000000000000e+00
    X0000001  OBJ        1.207256000000e+06
    MARK      'MARKER'                 'INTEND'
    X0000002  C0000005   1.000000000000e+00
    X0000002  C0000019   1.000000000000e+00
    X0000002  OBJ        7.839033100302e-01
    MARK      'MARKER'                 'INTORG'
    X0000003  C0000001   1.000000000000e+00
    X0000003  C0000006   1.000000000000e+00
    X0000003  C0000035   1.000000000000e+00
    X0000003  OBJ        1.207256000000e+06
    MARK      'MARKER'                 'INTEND'
    X0000004  C0000007   1.000000000000e+00
    X0000004  C0000020   1.000000000000e+00
    X0000004  OBJ        7.839033100302e-01
    MARK      'MARKER'                 'INTORG'
    X0000005  C0000001   1.000000000000e+00
    X0000005  C0000008   1.000000000000e+00
    X0000005  C0000035   1.000000000000e+00
    X0000005  OBJ        1.207256000000e+06
    MARK      'MARKER'                 'INTEND'
    X0000006  C0000009   1.000000000000e+00
    X0000006  C0000021   1.000000000000e+00
    X0000006  OBJ        7.839033100302e-01
    MARK      'MARKER'                 'INTORG'
    X0000007  C0000001   1.000000000000e+00
    X0000007  C0000010   1.000000000000e+00
    X0000007  C0000035   1.000000000000e+00
    X0000007  OBJ        1.207256000000e+06
    MARK      'MARKER'                 'INTEND'
    X0000008  C0000011   1.000000000000e+00
    X0000008  C0000022   1.000000000000e+00
    X0000008  OBJ        7.839033100302e-01
    MARK      'MARKER'                 'INTORG'
    X0000009  C0000001   1.000000000000e+00
    X0000009  C0000012   1.000000000000e+00
    X0000009  C0000023  -1.000000000000e+00
    X0000009  C0000035   1.000000000000e+00
    X0000009  OBJ        1.207256000000e+06
    MARK      'MARKER'                 'INTEND'
    X0000010  C0000013   1.000000000000e+00
    X0000010  C0000023   1.000000000000e+00
    X0000010  OBJ        7.839033100302e-01
    X0000011  C0000005   1.000000000000e+00
    X0000011  C0000014   1.000000000000e+00
    X0000011  OBJ        7.839033100302e-01
    MARK      'MARKER'                 'INTORG'
    X0000012  C0000002   1.000000000000e+00
    X0000012  C0000004   1.000000000000e+00
    X0000012  OBJ        1.207260789840e+06
    MARK      'MARKER'                 'INTEND'
    X0000013  C0000005   1.000000000000e+00
    X0000013  C0000024   1.000000000000e+00
    X0000013  OBJ        7.839033100302e-01
    MARK      'MARKER'                 'INTORG'
    X0000014  C0000002   1.000000000000e+00
    X0000014  C0000006   1.000000000000e+00
    X0000014  C0000025  -1.000000000000e+00
    X0000014  OBJ        1.207260789840e+06
    MARK      'MARKER'                 'INTEND'
    X0000015  C0000007   1.000000000000e+00
    X0000015  C0000025   1.000000000000e+00
    X0000015  OBJ        7.839033100302e-01
    MARK      'MARKER'                 'INTORG'
    X0000016  C0000002   1.000000000000e+00
    X0000016  C0000008   1.000000000000e+00
    X0000016  OBJ        1.207260789840e+06
    MARK      'MARKER'                 'INTEND'
    X0000017  C0000009   1.000000000000e+00
    X0000017  C0000026   1.000000000000e+00
    X0000017  OBJ        7.839033100302e-01
    MARK      'MARKER'                 'INTORG'
    X0000018  C0000002   1.000000000000e+00
    X0000018  C0000010   1.000000000000e+00
    X0000018  OBJ        1.207260789840e+06
    MARK      'MARKER'                 'INTEND'
    X0000019  C0000011   1.000000000000e+00
    X0000019  C0000027   1.000000000000e+00
    X0000019  OBJ        7.839033100302e-01
    MARK      'MARKER'                 'INTORG'
    X0000020  C0000002   1.000000000000e+00
    X0000020  C0000012   1.000000000000e+00
    X0000020  OBJ        1.207260789840e+06
    MARK      'MARKER'                 'INTEND'
    X0000021  C0000013   1.000000000000e+00
    X0000021  C0000028   1.000000000000e+00
    X0000021  OBJ        7.839033100302e-01
    MARK      'MARKER'                 'INTORG'
    X0000022  C0000000   1.000000000000e+00
    X0000022  C0000006   1.000000000000e+00
    X0000022  C0000034   1.000000000000e+00
    X0000022  OBJ        1.207256000000e+06
    MARK      'MARKER'                 'INTEND'
    MARK      'MARKER'                 'INTORG'
    X0000023  C0000003   1.000000000000e+00
    X0000023  C0000004   1.000000000000e+00
    X0000023  OBJ        1.207260789840e+06
    MARK      'MARKER'                 'INTEND'
    X0000024  C0000005   1.000000000000e+00
    X0000024  C0000029   1.000000000000e+00
    X0000024  OBJ        7.839033100302e-01
    MARK      'MARKER'                 'INTORG'
    X0000025  C0000003   1.000000000000e+00
    X0000025  C0000006   1.000000000000e+00
    X0000025  OBJ        1.207260789840e+06
    MARK      'MARKER'                 'INTEND'
    X0000026  C0000007   1.000000000000e+00
    X0000026  C0000030   1.000000000000e+00
    X0000026  OBJ        7.839033100302e-01
    MARK      'MARKER'                 'INTORG'
    X0000027  C0000003   1.000000000000e+00
    X0000027  C0000008   1.000000000000e+00
    X0000027  C0000031  -1.000000000000e+00
    X0000027  OBJ        1.207260789840e+06
    MARK      'MARKER'                 'INTEND'
    X0000028  C0000009   1.000000000000e+00
    X0000028  C0000031   1.000000000000e+00
    X0000028  OBJ        7.839033100302e-01
    MARK      'MARKER'                 'INTORG'
    X0000029  C0000003   1.000000000000e+00
    X0000029  C0000010   1.000000000000e+00
    X0000029  OBJ        1.207260789840e+06
    MARK      'MARKER'                 'INTEND'
    X0000030  C0000011   1.000000000000e+00
    X0000030  C0000032   1.000000000000e+00
    X0000030  OBJ        7.839033100302e-01
    MARK      'MARKER'                 'INTORG'
    X0000031  C0000003   1.000000000000e+00
    X0000031  C0000012   1.000000000000e+00
    X0000031  OBJ        1.207260789840e+06
    MARK      'MARKER'                 'INTEND'
    X0000032  C0000013   1.000000000000e+00
    X0000032  C0000033   1.000000000000e+00
    X0000032  OBJ        7.839033100302e-01
    X0000033  C0000007   1.000000000000e+00
    X0000033  C0000015   1.000000000000e+00
    X0000033  OBJ        7.839033100302e-01
    MARK      'MARKER'                 'INTORG'
    X0000034  C0000000   1.000000000000e+00
    X0000034  C0000008   1.000000000000e+00
    X0000034  C0000034   1.000000000000e+00
    X0000034  OBJ        1.207256000000e+06
    MARK      'MARKER'                 'INTEND'
    X0000035  C0000009   1.000000000000e+00
    X0000035  C0000016   1.000000000000e+00
    X0000035  OBJ        7.839033100302e-01
    MARK      'MARKER'                 'INTORG'
    X0000036  C0000000   1.000000000000e+00
    X0000036  C0000010   1.000000000000e+00
    X0000036  C0000017  -1.000000000000e+00
    X0000036  C0000034   1.000000000000e+00
    X0000036  OBJ        1.207256000000e+06
    MARK      'MARKER'                 'INTEND'
    X0000037  C0000011   1.000000000000e+00
    X0000037  C0000017   1.000000000000e+00
    X0000037  OBJ        7.839033100302e-01
    MARK      'MARKER'                 'INTORG'
    X0000038  C0000000   1.000000000000e+00
    X0000038  C0000012   1.000000000000e+00
    X0000038  C0000034   1.000000000000e+00
    X0000038  OBJ        1.207256000000e+06
    MARK      'MARKER'                 'INTEND'
    X0000039  C0000013   1.000000000000e+00
    X0000039  C0000018   1.000000000000e+00
    X0000039  OBJ        7.839033100302e-01
RHS
    RHS       C0000000   1.000000000000e+00
    RHS       C0000001   1.000000000000e+00
    RHS       C0000002   1.000000000000e+00
    RHS       C0000003   1.000000000000e+00
    RHS       C0000004   1.000000000000e+00
    RHS       C0000005   1.000000000000e+06
    RHS       C0000006   1.000000000000e+00
    RHS       C0000007   1.000000000000e+06
    RHS       C0000008   1.000000000000e+00
    RHS       C0000009   1.000000000000e+06
    RHS       C0000010   1.000000000000e+00
    RHS       C0000011   1.000000000000e+06
    RHS       C0000012   1.000000000000e+00
    RHS       C0000013   1.000000000000e+06
    RHS       C0000014   0.000000000000e+00
    RHS       C0000015   0.000000000000e+00
    RHS       C0000016   0.000000000000e+00
    RHS       C0000017   0.000000000000e+00
    RHS       C0000018   0.000000000000e+00
    RHS       C0000019   0.000000000000e+00
    RHS       C0000020   0.000000000000e+00
    RHS       C0000021   0.000000000000e+00
    RHS       C0000022   0.000000000000e+00
    RHS       C0000023   0.000000000000e+00
    RHS       C0000024   0.000000000000e+00
    RHS       C0000025   0.000000000000e+00
    RHS       C0000026   0.000000000000e+00
    RHS       C0000027   0.000000000000e+00
    RHS       C0000028   0.000000000000e+00
    RHS       C0000029   0.000000000000e+00
    RHS       C0000030   0.000000000000e+00
    RHS       C0000031   0.000000000000e+00
    RHS       C0000032   0.000000000000e+00
    RHS       C0000033   0.000000000000e+00
    RHS       C0000034   1.000000000000e+00
    RHS       C0000035   1.000000000000e+00
BOUNDS
 BV BND       X0000000
 BV BND       X0000001
 UP BND       X0000002   1.000000000000e+00
 FX BND       X0000003   0.000000000000e+00
 FX BND       X0000004   0.000000000000e+00
 FX BND       X0000005   0.000000000000e+00
 FX BND       X0000006   0.000000000000e+00
 FX BND       X0000007   0.000000000000e+00
 FX BND       X0000008   0.000000000000e+00
 BV BND       X0000009
 UP BND       X0000010   1.000000000000e+00
 UP BND       X0000011   1.000000000000e+00
 FX BND       X0000012   0.000000000000e+00
 FX BND       X0000013   0.000000000000e+00
 BV BND       X0000014
 UP BND       X0000015   1.000000000000e+00
 FX BND       X0000016   0.000000000000e+00
 FX BND       X0000017   0.000000000000e+00
 FX BND       X0000018   0.000000000000e+00
 FX BND       X0000019   0.000000000000e+00
 FX BND       X0000020   0.000000000000e+00
 FX BND       X0000021   0.000000000000e+00
 FX BND       X0000022   0.000000000000e+00
 FX BND       X0000023   0.000000000000e+00
 FX BND       X0000024   0.000000000000e+00
 FX BND       X0000025   0.000000000000e+00
 FX BND       X0000026   0.000000000000e+00
 BV BND       X0000027
 UP BND       X0000028   1.000000000000e+00
 FX BND       X0000029   0.000000000000e+00
 FX BND       X0000030   0.000000000000e+00
 FX BND       X0000031   0.000000000000e+00
 FX BND       X0000032   0.000000000000e+00
 FX BND       X0000033   0.000000000000e+00
 FX BND       X0000034   0.000000000000e+00
 FX BND       X0000035   0.000000000000e+00
 BV BND       X0000036
 UP BND       X0000037   1.000000000000e+00
 FX BND       X0000038   0.000000000000e+00
 FX BND       X0000039   0.000000000000e+00
ENDATA
